instances/tuning-use-case-1/ISA856RandomOvenSchedulingInstance-n25-k5-a2--0505-22.33.02.dzn
l=319;
a=2;
setup_costs=[|0,0,
|0,0,
|0,0,|];
setup_times=[|2,2,
|2,2,
|0,0,|];
m=5;
min_cap=[0, 0, 0, 0, 0];
max_cap=[53, 35, 32, 69, 63];

initState=[2, 1, 2, 1, 2];
s=5;
m_a_s = [|0,55,139,266,293,
|0,29,264,296,315,
|0,0,0,0,39,
|0,0,0,0,38,
|8,83,108,242,248|];
m_a_e = [|0,129,241,287,317,
|0,228,288,312,318,
|0,0,0,0,262,
|0,0,0,0,255,
|75,102,235,247,309|];
n=25;
eligible_machine =[{1, 2}, {4}, {1, 2, 4}, {1, 2, 5}, {2}, {3}, {2}, {2, 4, 5}, {4}, {2}, {2}, {3, 4, 5}, {1, 3}, {2, 3, 5}, {5}, {1, 2, 3}, {3}, {1, 3}, {2}, {1}, {1}, {2, 3}, {2, 5}, {3, 4, 5}, {1}];
earliest_start=[41, 1, 5, 41, 30, 24, 31, 32, 15, 21, 65, 62, 30, 43, 30, 47, 26, 68, 37, 68, 68, 35, 36, 54, 13];
latest_end=[50, 30, 8, 43, 60, 44, 37, 40, 34, 35, 79, 74, 51, 46, 44, 63, 29, 117, 52, 80, 83, 53, 69, 77, 47];
min_time=[5, 10, 1, 1, 9, 5, 2, 5, 4, 5, 5, 5, 5, 3, 6, 6, 3, 10, 6, 4, 8, 8, 10, 5, 7];
max_time=[5, 10, 1, 9, 9, 8, 4, 9, 10, 6, 7, 9, 5, 8, 8, 10, 3, 10, 9, 6, 10, 8, 10, 6, 10];
size=[14, 7, 20, 3, 20, 8, 13, 19, 10, 2, 11, 7, 16, 2, 11, 14, 2, 18, 7, 19, 1, 4, 14, 10, 16];
attribute=[1, 2, 2, 1, 2, 1, 1, 1, 2, 2, 2, 1, 1, 2, 2, 1, 2, 2, 2, 2, 2, 2, 1, 2, 1];

upper_bound_integer_objective=15750;
mult_factor_total_runtime=4;
mult_factor_finished_toolate=600;
mult_factor_total_setuptimes=0;
mult_factor_total_setupcosts=6;
running_time_bound=138;
min_duration=1;
max_duration=10;
max_setup_time=2;
max_setup_cost=0;