instances/tuning-use-case-3/ISA856RandomOvenSchedulingInstance-n25-k5-a2--0505-22.33.02.dat
LengthSchedulingHorizon=319;
nAttributes=2;
SetupCosts=[[0, 0], [0, 0], [0, 0]];
SetupTimes=[[0, 0], [2, 2], [2, 2]];
nMachines=5;
MinCap=[0, 0, 0, 0, 0];
MaxCap=[53, 35, 32, 69, 63];

initState=[2, 1, 2, 1, 2];
nShifts=5;
ShiftStartTimes = [[0, 55, 139, 266, 293], [0, 29, 264, 296, 315], [0, 0, 0, 0, 39], [0, 0, 0, 0, 38], [8, 83, 108, 242, 248]];
ShiftEndTimes = [[0, 129, 241, 287, 317], [0, 228, 288, 312, 318], [0, 0, 0, 0, 262], [0, 0, 0, 0, 255], [75, 102, 235, 247, 309]];
nJobs=25;
EligibleMachines = [{1, 2}, {4}, {1, 2, 4}, {1, 2, 5}, {2}, {3}, {2}, {2, 4, 5}, {4}, {2}, {2}, {3, 4, 5}, {1, 3}, {2, 3, 5}, {5}, {1, 2, 3}, {3}, {1, 3}, {2}, {1}, {1}, {2, 3}, {2, 5}, {3, 4, 5}, {1}];
EarliestStart=[41, 1, 5, 41, 30, 24, 31, 32, 15, 21, 65, 62, 30, 43, 30, 47, 26, 68, 37, 68, 68, 35, 36, 54, 13];
LatestEnd=[50, 30, 8, 43, 60, 44, 37, 40, 34, 35, 79, 74, 51, 46, 44, 63, 29, 117, 52, 80, 83, 53, 69, 77, 47];
MinTime=[5, 10, 1, 1, 9, 5, 2, 5, 4, 5, 5, 5, 5, 3, 6, 6, 3, 10, 6, 4, 8, 8, 10, 5, 7];
MaxTime=[5, 10, 1, 9, 9, 8, 4, 9, 10, 6, 7, 9, 5, 8, 8, 10, 3, 10, 9, 6, 10, 8, 10, 6, 10];
JobSize=[14, 7, 20, 3, 20, 8, 13, 19, 10, 2, 11, 7, 16, 2, 11, 14, 2, 18, 7, 19, 1, 4, 14, 10, 16];
Attribute=[1, 2, 2, 1, 2, 1, 1, 1, 2, 2, 2, 1, 1, 2, 2, 1, 2, 2, 2, 2, 2, 2, 1, 2, 1];

upper_bound_integer_objective=750;
mult_factor_total_runtime=2;
mult_factor_finished_toolate=12;
mult_factor_total_setuptimes=0;
mult_factor_total_setupcosts=6;
running_time_bound=138;
min_duration=1;
max_duration=10;
max_setup_time=2;
max_setup_cost=0;
